NAME /Users/henri/Research/solvers/instances/idol-instances/robust/collection/spp_dkp_Lefebvre_et_al_2026/shortest_path_11_4/uncertainty_sets/discrete_knapsack
ROWS
 N  OBJ
 L  primal_lower
COLUMNS
    MARKER    'MARKER'                 'INTORG'
    y[0,1]     OBJ        0
    y[0,1]     primal_lower -3.94
    y[0,2]     OBJ        0
    y[0,2]     primal_lower -3.19
    y[0,3]     OBJ        0
    y[0,3]     primal_lower -1.25
    y[0,4]     OBJ        0
    y[0,4]     primal_lower -3.81
    y[0,5]     OBJ        0
    y[0,5]     primal_lower -1.57
    y[0,6]     OBJ        0
    y[0,6]     primal_lower -4.71
    y[0,8]     OBJ        0
    y[0,8]     primal_lower -0.22
    y[0,9]     OBJ        0
    y[0,9]     primal_lower -2.21
    y[0,10]    OBJ        0
    y[0,10]    primal_lower -4.58
    y[1,0]     OBJ        0
    y[1,0]     primal_lower -2.29
    y[1,2]     OBJ        0
    y[1,2]     primal_lower -2.55
    y[1,3]     OBJ        0
    y[1,3]     primal_lower -0.43
    y[1,4]     OBJ        0
    y[1,4]     primal_lower -2.14
    y[1,6]     OBJ        0
    y[1,6]     primal_lower -3.75
    y[1,9]     OBJ        0
    y[1,9]     primal_lower -4.36
    y[1,10]    OBJ        0
    y[1,10]    primal_lower -1.63
    y[2,0]     OBJ        0
    y[2,0]     primal_lower -0.52
    y[2,1]     OBJ        0
    y[2,1]     primal_lower -4.03
    y[2,3]     OBJ        0
    y[2,3]     primal_lower -1.98
    y[2,4]     OBJ        0
    y[2,4]     primal_lower -3.15
    y[2,5]     OBJ        0
    y[2,5]     primal_lower -0.18
    y[2,6]     OBJ        0
    y[2,6]     primal_lower -1.51
    y[2,7]     OBJ        0
    y[2,7]     primal_lower -0.24
    y[2,8]     OBJ        0
    y[2,8]     primal_lower -1.87
    y[2,9]     OBJ        0
    y[2,9]     primal_lower -1.32
    y[2,10]    OBJ        0
    y[2,10]    primal_lower -4.98
    y[3,0]     OBJ        0
    y[3,0]     primal_lower -1.98
    y[3,1]     OBJ        0
    y[3,1]     primal_lower -1.54
    y[3,2]     OBJ        0
    y[3,2]     primal_lower -1.11
    y[3,4]     OBJ        0
    y[3,4]     primal_lower -2.48
    y[3,5]     OBJ        0
    y[3,5]     primal_lower -0.29
    y[3,7]     OBJ        0
    y[3,7]     primal_lower -1.46
    y[3,8]     OBJ        0
    y[3,8]     primal_lower -1.18
    y[3,10]    OBJ        0
    y[3,10]    primal_lower -4.84
    y[4,0]     OBJ        0
    y[4,0]     primal_lower -3.09
    y[4,1]     OBJ        0
    y[4,1]     primal_lower -4.33
    y[4,2]     OBJ        0
    y[4,2]     primal_lower -0.45
    y[4,3]     OBJ        0
    y[4,3]     primal_lower -0.75
    y[4,6]     OBJ        0
    y[4,6]     primal_lower -3.38
    y[4,9]     OBJ        0
    y[4,9]     primal_lower -4.92
    y[4,10]    OBJ        0
    y[4,10]    primal_lower -0.12
    y[5,0]     OBJ        0
    y[5,0]     primal_lower -4.56
    y[5,2]     OBJ        0
    y[5,2]     primal_lower -0.29
    y[5,3]     OBJ        0
    y[5,3]     primal_lower -3.8
    y[5,6]     OBJ        0
    y[5,6]     primal_lower -0.32
    y[5,7]     OBJ        0
    y[5,7]     primal_lower -1.28
    y[5,8]     OBJ        0
    y[5,8]     primal_lower -0.85
    y[5,9]     OBJ        0
    y[5,9]     primal_lower -0.98
    y[5,10]    OBJ        0
    y[5,10]    primal_lower -0.54
    y[6,0]     OBJ        0
    y[6,0]     primal_lower -2.62
    y[6,1]     OBJ        0
    y[6,1]     primal_lower -0.03
    y[6,2]     OBJ        0
    y[6,2]     primal_lower -3.97
    y[6,4]     OBJ        0
    y[6,4]     primal_lower -0.7
    y[6,5]     OBJ        0
    y[6,5]     primal_lower -0.54
    y[6,8]     OBJ        0
    y[6,8]     primal_lower -2.16
    y[6,9]     OBJ        0
    y[6,9]     primal_lower -1.1
    y[6,10]    OBJ        0
    y[6,10]    primal_lower -4.2
    y[7,2]     OBJ        0
    y[7,2]     primal_lower -0.03
    y[7,3]     OBJ        0
    y[7,3]     primal_lower -0.74
    y[7,5]     OBJ        0
    y[7,5]     primal_lower -3.51
    y[7,8]     OBJ        0
    y[7,8]     primal_lower -0.74
    y[7,10]    OBJ        0
    y[7,10]    primal_lower -4.37
    y[8,0]     OBJ        0
    y[8,0]     primal_lower -2.58
    y[8,2]     OBJ        0
    y[8,2]     primal_lower -2.13
    y[8,3]     OBJ        0
    y[8,3]     primal_lower -0.1
    y[8,5]     OBJ        0
    y[8,5]     primal_lower -2.48
    y[8,6]     OBJ        0
    y[8,6]     primal_lower -4.75
    y[8,7]     OBJ        0
    y[8,7]     primal_lower -1.74
    y[8,9]     OBJ        0
    y[8,9]     primal_lower -2.05
    y[8,10]    OBJ        0
    y[8,10]    primal_lower -4.16
    y[9,0]     OBJ        0
    y[9,0]     primal_lower -3.59
    y[9,1]     OBJ        0
    y[9,1]     primal_lower -2.44
    y[9,2]     OBJ        0
    y[9,2]     primal_lower -1.17
    y[9,4]     OBJ        0
    y[9,4]     primal_lower -3.38
    y[9,5]     OBJ        0
    y[9,5]     primal_lower -2.91
    y[9,6]     OBJ        0
    y[9,6]     primal_lower -2.25
    y[9,8]     OBJ        0
    y[9,8]     primal_lower -2.9
    y[9,10]    OBJ        0
    y[9,10]    primal_lower -1.56
    y[10,0]    OBJ        0
    y[10,0]    primal_lower -3.28
    y[10,1]    OBJ        0
    y[10,1]    primal_lower -0.46
    y[10,2]    OBJ        0
    y[10,2]    primal_lower -1.84
    y[10,3]    OBJ        0
    y[10,3]    primal_lower -2.87
    y[10,4]    OBJ        0
    y[10,4]    primal_lower -4.07
    y[10,5]    OBJ        0
    y[10,5]    primal_lower -2.34
    y[10,6]    OBJ        0
    y[10,6]    primal_lower -3.14
    y[10,7]    OBJ        0
    y[10,7]    primal_lower -2.8
    y[10,8]    OBJ        0
    y[10,8]    primal_lower -1.67
    y[10,9]    OBJ        0
    y[10,9]    primal_lower -0.69
    u[0,1]     OBJ        0
    u[0,1]     primal_lower 14
    u[0,2]     OBJ        0
    u[0,2]     primal_lower 72
    u[0,3]     OBJ        0
    u[0,3]     primal_lower 54
    u[0,4]     OBJ        0
    u[0,4]     primal_lower 85
    u[0,5]     OBJ        0
    u[0,5]     primal_lower 84
    u[0,6]     OBJ        0
    u[0,6]     primal_lower 58
    u[0,8]     OBJ        0
    u[0,8]     primal_lower 77
    u[0,9]     OBJ        0
    u[0,9]     primal_lower 22
    u[0,10]    OBJ        0
    u[0,10]    primal_lower 82
    u[1,0]     OBJ        0
    u[1,0]     primal_lower 96
    u[1,2]     OBJ        0
    u[1,2]     primal_lower 48
    u[1,3]     OBJ        0
    u[1,3]     primal_lower 75
    u[1,4]     OBJ        0
    u[1,4]     primal_lower 83
    u[1,6]     OBJ        0
    u[1,6]     primal_lower 12
    u[1,9]     OBJ        0
    u[1,9]     primal_lower 6
    u[1,10]    OBJ        0
    u[1,10]    primal_lower 90
    u[2,0]     OBJ        0
    u[2,0]     primal_lower 15
    u[2,1]     OBJ        0
    u[2,1]     primal_lower 61
    u[2,3]     OBJ        0
    u[2,3]     primal_lower 12
    u[2,4]     OBJ        0
    u[2,4]     primal_lower 57
    u[2,5]     OBJ        0
    u[2,5]     primal_lower 42
    u[2,6]     OBJ        0
    u[2,6]     primal_lower 65
    u[2,7]     OBJ        0
    u[2,7]     primal_lower 1
    u[2,8]     OBJ        0
    u[2,8]     primal_lower 37
    u[2,9]     OBJ        0
    u[2,9]     primal_lower 90
    u[2,10]    OBJ        0
    u[2,10]    primal_lower 5
    u[3,0]     OBJ        0
    u[3,0]     primal_lower 26
    u[3,1]     OBJ        0
    u[3,1]     primal_lower 40
    u[3,2]     OBJ        0
    u[3,2]     primal_lower 83
    u[3,4]     OBJ        0
    u[3,4]     primal_lower 33
    u[3,5]     OBJ        0
    u[3,5]     primal_lower 71
    u[3,7]     OBJ        0
    u[3,7]     primal_lower 26
    u[3,8]     OBJ        0
    u[3,8]     primal_lower 27
    u[3,10]    OBJ        0
    u[3,10]    primal_lower 92
    u[4,0]     OBJ        0
    u[4,0]     primal_lower 98
    u[4,1]     OBJ        0
    u[4,1]     primal_lower 72
    u[4,2]     OBJ        0
    u[4,2]     primal_lower 55
    u[4,3]     OBJ        0
    u[4,3]     primal_lower 37
    u[4,6]     OBJ        0
    u[4,6]     primal_lower 44
    u[4,9]     OBJ        0
    u[4,9]     primal_lower 36
    u[4,10]    OBJ        0
    u[4,10]    primal_lower 19
    u[5,0]     OBJ        0
    u[5,0]     primal_lower 96
    u[5,2]     OBJ        0
    u[5,2]     primal_lower 34
    u[5,3]     OBJ        0
    u[5,3]     primal_lower 61
    u[5,6]     OBJ        0
    u[5,6]     primal_lower 94
    u[5,7]     OBJ        0
    u[5,7]     primal_lower 74
    u[5,8]     OBJ        0
    u[5,8]     primal_lower 53
    u[5,9]     OBJ        0
    u[5,9]     primal_lower 62
    u[5,10]    OBJ        0
    u[5,10]    primal_lower 39
    u[6,0]     OBJ        0
    u[6,0]     primal_lower 91
    u[6,1]     OBJ        0
    u[6,1]     primal_lower 70
    u[6,2]     OBJ        0
    u[6,2]     primal_lower 81
    u[6,4]     OBJ        0
    u[6,4]     primal_lower 44
    u[6,5]     OBJ        0
    u[6,5]     primal_lower 46
    u[6,8]     OBJ        0
    u[6,8]     primal_lower 86
    u[6,9]     OBJ        0
    u[6,9]     primal_lower 78
    u[6,10]    OBJ        0
    u[6,10]    primal_lower 36
    u[7,2]     OBJ        0
    u[7,2]     primal_lower 100
    u[7,3]     OBJ        0
    u[7,3]     primal_lower 57
    u[7,5]     OBJ        0
    u[7,5]     primal_lower 71
    u[7,8]     OBJ        0
    u[7,8]     primal_lower 44
    u[7,10]    OBJ        0
    u[7,10]    primal_lower 55
    u[8,0]     OBJ        0
    u[8,0]     primal_lower 58
    u[8,2]     OBJ        0
    u[8,2]     primal_lower 98
    u[8,3]     OBJ        0
    u[8,3]     primal_lower 66
    u[8,5]     OBJ        0
    u[8,5]     primal_lower 58
    u[8,6]     OBJ        0
    u[8,6]     primal_lower 55
    u[8,7]     OBJ        0
    u[8,7]     primal_lower 65
    u[8,9]     OBJ        0
    u[8,9]     primal_lower 54
    u[8,10]    OBJ        0
    u[8,10]    primal_lower 18
    u[9,0]     OBJ        0
    u[9,0]     primal_lower 15
    u[9,1]     OBJ        0
    u[9,1]     primal_lower 27
    u[9,2]     OBJ        0
    u[9,2]     primal_lower 66
    u[9,4]     OBJ        0
    u[9,4]     primal_lower 51
    u[9,5]     OBJ        0
    u[9,5]     primal_lower 23
    u[9,6]     OBJ        0
    u[9,6]     primal_lower 5
    u[9,8]     OBJ        0
    u[9,8]     primal_lower 62
    u[9,10]    OBJ        0
    u[9,10]    primal_lower 77
    u[10,0]    OBJ        0
    u[10,0]    primal_lower 65
    u[10,1]    OBJ        0
    u[10,1]    primal_lower 18
    u[10,2]    OBJ        0
    u[10,2]    primal_lower 69
    u[10,3]    OBJ        0
    u[10,3]    primal_lower 66
    u[10,4]    OBJ        0
    u[10,4]    primal_lower 84
    u[10,5]    OBJ        0
    u[10,5]    primal_lower 44
    u[10,6]    OBJ        0
    u[10,6]    primal_lower 84
    u[10,7]    OBJ        0
    u[10,7]    primal_lower 36
    u[10,8]    OBJ        0
    u[10,8]    primal_lower 80
    u[10,9]    OBJ        0
    u[10,9]    primal_lower 45
    MARKER    'MARKER'                 'INTEND'
RHS
    RHS       primal_lower 442
BOUNDS
 LI BND       y[0,1]     0
 UI BND       y[0,1]     1
 LI BND       y[0,2]     0
 UI BND       y[0,2]     1
 LI BND       y[0,3]     0
 UI BND       y[0,3]     1
 LI BND       y[0,4]     0
 UI BND       y[0,4]     1
 LI BND       y[0,5]     0
 UI BND       y[0,5]     1
 LI BND       y[0,6]     0
 UI BND       y[0,6]     1
 LI BND       y[0,8]     0
 UI BND       y[0,8]     1
 LI BND       y[0,9]     0
 UI BND       y[0,9]     1
 LI BND       y[0,10]    0
 UI BND       y[0,10]    1
 LI BND       y[1,0]     0
 UI BND       y[1,0]     1
 LI BND       y[1,2]     0
 UI BND       y[1,2]     1
 LI BND       y[1,3]     0
 UI BND       y[1,3]     1
 LI BND       y[1,4]     0
 UI BND       y[1,4]     1
 LI BND       y[1,6]     0
 UI BND       y[1,6]     1
 LI BND       y[1,9]     0
 UI BND       y[1,9]     1
 LI BND       y[1,10]    0
 UI BND       y[1,10]    1
 LI BND       y[2,0]     0
 UI BND       y[2,0]     1
 LI BND       y[2,1]     0
 UI BND       y[2,1]     1
 LI BND       y[2,3]     0
 UI BND       y[2,3]     1
 LI BND       y[2,4]     0
 UI BND       y[2,4]     1
 LI BND       y[2,5]     0
 UI BND       y[2,5]     1
 LI BND       y[2,6]     0
 UI BND       y[2,6]     1
 LI BND       y[2,7]     0
 UI BND       y[2,7]     1
 LI BND       y[2,8]     0
 UI BND       y[2,8]     1
 LI BND       y[2,9]     0
 UI BND       y[2,9]     1
 LI BND       y[2,10]    0
 UI BND       y[2,10]    1
 LI BND       y[3,0]     0
 UI BND       y[3,0]     1
 LI BND       y[3,1]     0
 UI BND       y[3,1]     1
 LI BND       y[3,2]     0
 UI BND       y[3,2]     1
 LI BND       y[3,4]     0
 UI BND       y[3,4]     1
 LI BND       y[3,5]     0
 UI BND       y[3,5]     1
 LI BND       y[3,7]     0
 UI BND       y[3,7]     1
 LI BND       y[3,8]     0
 UI BND       y[3,8]     1
 LI BND       y[3,10]    0
 UI BND       y[3,10]    1
 LI BND       y[4,0]     0
 UI BND       y[4,0]     1
 LI BND       y[4,1]     0
 UI BND       y[4,1]     1
 LI BND       y[4,2]     0
 UI BND       y[4,2]     1
 LI BND       y[4,3]     0
 UI BND       y[4,3]     1
 LI BND       y[4,6]     0
 UI BND       y[4,6]     1
 LI BND       y[4,9]     0
 UI BND       y[4,9]     1
 LI BND       y[4,10]    0
 UI BND       y[4,10]    1
 LI BND       y[5,0]     0
 UI BND       y[5,0]     1
 LI BND       y[5,2]     0
 UI BND       y[5,2]     1
 LI BND       y[5,3]     0
 UI BND       y[5,3]     1
 LI BND       y[5,6]     0
 UI BND       y[5,6]     1
 LI BND       y[5,7]     0
 UI BND       y[5,7]     1
 LI BND       y[5,8]     0
 UI BND       y[5,8]     1
 LI BND       y[5,9]     0
 UI BND       y[5,9]     1
 LI BND       y[5,10]    0
 UI BND       y[5,10]    1
 LI BND       y[6,0]     0
 UI BND       y[6,0]     1
 LI BND       y[6,1]     0
 UI BND       y[6,1]     1
 LI BND       y[6,2]     0
 UI BND       y[6,2]     1
 LI BND       y[6,4]     0
 UI BND       y[6,4]     1
 LI BND       y[6,5]     0
 UI BND       y[6,5]     1
 LI BND       y[6,8]     0
 UI BND       y[6,8]     1
 LI BND       y[6,9]     0
 UI BND       y[6,9]     1
 LI BND       y[6,10]    0
 UI BND       y[6,10]    1
 LI BND       y[7,2]     0
 UI BND       y[7,2]     1
 LI BND       y[7,3]     0
 UI BND       y[7,3]     1
 LI BND       y[7,5]     0
 UI BND       y[7,5]     1
 LI BND       y[7,8]     0
 UI BND       y[7,8]     1
 LI BND       y[7,10]    0
 UI BND       y[7,10]    1
 LI BND       y[8,0]     0
 UI BND       y[8,0]     1
 LI BND       y[8,2]     0
 UI BND       y[8,2]     1
 LI BND       y[8,3]     0
 UI BND       y[8,3]     1
 LI BND       y[8,5]     0
 UI BND       y[8,5]     1
 LI BND       y[8,6]     0
 UI BND       y[8,6]     1
 LI BND       y[8,7]     0
 UI BND       y[8,7]     1
 LI BND       y[8,9]     0
 UI BND       y[8,9]     1
 LI BND       y[8,10]    0
 UI BND       y[8,10]    1
 LI BND       y[9,0]     0
 UI BND       y[9,0]     1
 LI BND       y[9,1]     0
 UI BND       y[9,1]     1
 LI BND       y[9,2]     0
 UI BND       y[9,2]     1
 LI BND       y[9,4]     0
 UI BND       y[9,4]     1
 LI BND       y[9,5]     0
 UI BND       y[9,5]     1
 LI BND       y[9,6]     0
 UI BND       y[9,6]     1
 LI BND       y[9,8]     0
 UI BND       y[9,8]     1
 LI BND       y[9,10]    0
 UI BND       y[9,10]    1
 LI BND       y[10,0]    0
 UI BND       y[10,0]    1
 LI BND       y[10,1]    0
 UI BND       y[10,1]    1
 LI BND       y[10,2]    0
 UI BND       y[10,2]    1
 LI BND       y[10,3]    0
 UI BND       y[10,3]    1
 LI BND       y[10,4]    0
 UI BND       y[10,4]    1
 LI BND       y[10,5]    0
 UI BND       y[10,5]    1
 LI BND       y[10,6]    0
 UI BND       y[10,6]    1
 LI BND       y[10,7]    0
 UI BND       y[10,7]    1
 LI BND       y[10,8]    0
 UI BND       y[10,8]    1
 LI BND       y[10,9]    0
 UI BND       y[10,9]    1
 LI BND       u[0,1]     0
 UI BND       u[0,1]     1
 LI BND       u[0,2]     0
 UI BND       u[0,2]     1
 LI BND       u[0,3]     0
 UI BND       u[0,3]     1
 LI BND       u[0,4]     0
 UI BND       u[0,4]     1
 LI BND       u[0,5]     0
 UI BND       u[0,5]     1
 LI BND       u[0,6]     0
 UI BND       u[0,6]     1
 LI BND       u[0,8]     0
 UI BND       u[0,8]     1
 LI BND       u[0,9]     0
 UI BND       u[0,9]     1
 LI BND       u[0,10]    0
 UI BND       u[0,10]    1
 LI BND       u[1,0]     0
 UI BND       u[1,0]     1
 LI BND       u[1,2]     0
 UI BND       u[1,2]     1
 LI BND       u[1,3]     0
 UI BND       u[1,3]     1
 LI BND       u[1,4]     0
 UI BND       u[1,4]     1
 LI BND       u[1,6]     0
 UI BND       u[1,6]     1
 LI BND       u[1,9]     0
 UI BND       u[1,9]     1
 LI BND       u[1,10]    0
 UI BND       u[1,10]    1
 LI BND       u[2,0]     0
 UI BND       u[2,0]     1
 LI BND       u[2,1]     0
 UI BND       u[2,1]     1
 LI BND       u[2,3]     0
 UI BND       u[2,3]     1
 LI BND       u[2,4]     0
 UI BND       u[2,4]     1
 LI BND       u[2,5]     0
 UI BND       u[2,5]     1
 LI BND       u[2,6]     0
 UI BND       u[2,6]     1
 LI BND       u[2,7]     0
 UI BND       u[2,7]     1
 LI BND       u[2,8]     0
 UI BND       u[2,8]     1
 LI BND       u[2,9]     0
 UI BND       u[2,9]     1
 LI BND       u[2,10]    0
 UI BND       u[2,10]    1
 LI BND       u[3,0]     0
 UI BND       u[3,0]     1
 LI BND       u[3,1]     0
 UI BND       u[3,1]     1
 LI BND       u[3,2]     0
 UI BND       u[3,2]     1
 LI BND       u[3,4]     0
 UI BND       u[3,4]     1
 LI BND       u[3,5]     0
 UI BND       u[3,5]     1
 LI BND       u[3,7]     0
 UI BND       u[3,7]     1
 LI BND       u[3,8]     0
 UI BND       u[3,8]     1
 LI BND       u[3,10]    0
 UI BND       u[3,10]    1
 LI BND       u[4,0]     0
 UI BND       u[4,0]     1
 LI BND       u[4,1]     0
 UI BND       u[4,1]     1
 LI BND       u[4,2]     0
 UI BND       u[4,2]     1
 LI BND       u[4,3]     0
 UI BND       u[4,3]     1
 LI BND       u[4,6]     0
 UI BND       u[4,6]     1
 LI BND       u[4,9]     0
 UI BND       u[4,9]     1
 LI BND       u[4,10]    0
 UI BND       u[4,10]    1
 LI BND       u[5,0]     0
 UI BND       u[5,0]     1
 LI BND       u[5,2]     0
 UI BND       u[5,2]     1
 LI BND       u[5,3]     0
 UI BND       u[5,3]     1
 LI BND       u[5,6]     0
 UI BND       u[5,6]     1
 LI BND       u[5,7]     0
 UI BND       u[5,7]     1
 LI BND       u[5,8]     0
 UI BND       u[5,8]     1
 LI BND       u[5,9]     0
 UI BND       u[5,9]     1
 LI BND       u[5,10]    0
 UI BND       u[5,10]    1
 LI BND       u[6,0]     0
 UI BND       u[6,0]     1
 LI BND       u[6,1]     0
 UI BND       u[6,1]     1
 LI BND       u[6,2]     0
 UI BND       u[6,2]     1
 LI BND       u[6,4]     0
 UI BND       u[6,4]     1
 LI BND       u[6,5]     0
 UI BND       u[6,5]     1
 LI BND       u[6,8]     0
 UI BND       u[6,8]     1
 LI BND       u[6,9]     0
 UI BND       u[6,9]     1
 LI BND       u[6,10]    0
 UI BND       u[6,10]    1
 LI BND       u[7,2]     0
 UI BND       u[7,2]     1
 LI BND       u[7,3]     0
 UI BND       u[7,3]     1
 LI BND       u[7,5]     0
 UI BND       u[7,5]     1
 LI BND       u[7,8]     0
 UI BND       u[7,8]     1
 LI BND       u[7,10]    0
 UI BND       u[7,10]    1
 LI BND       u[8,0]     0
 UI BND       u[8,0]     1
 LI BND       u[8,2]     0
 UI BND       u[8,2]     1
 LI BND       u[8,3]     0
 UI BND       u[8,3]     1
 LI BND       u[8,5]     0
 UI BND       u[8,5]     1
 LI BND       u[8,6]     0
 UI BND       u[8,6]     1
 LI BND       u[8,7]     0
 UI BND       u[8,7]     1
 LI BND       u[8,9]     0
 UI BND       u[8,9]     1
 LI BND       u[8,10]    0
 UI BND       u[8,10]    1
 LI BND       u[9,0]     0
 UI BND       u[9,0]     1
 LI BND       u[9,1]     0
 UI BND       u[9,1]     1
 LI BND       u[9,2]     0
 UI BND       u[9,2]     1
 LI BND       u[9,4]     0
 UI BND       u[9,4]     1
 LI BND       u[9,5]     0
 UI BND       u[9,5]     1
 LI BND       u[9,6]     0
 UI BND       u[9,6]     1
 LI BND       u[9,8]     0
 UI BND       u[9,8]     1
 LI BND       u[9,10]    0
 UI BND       u[9,10]    1
 LI BND       u[10,0]    0
 UI BND       u[10,0]    1
 LI BND       u[10,1]    0
 UI BND       u[10,1]    1
 LI BND       u[10,2]    0
 UI BND       u[10,2]    1
 LI BND       u[10,3]    0
 UI BND       u[10,3]    1
 LI BND       u[10,4]    0
 UI BND       u[10,4]    1
 LI BND       u[10,5]    0
 UI BND       u[10,5]    1
 LI BND       u[10,6]    0
 UI BND       u[10,6]    1
 LI BND       u[10,7]    0
 UI BND       u[10,7]    1
 LI BND       u[10,8]    0
 UI BND       u[10,8]    1
 LI BND       u[10,9]    0
 UI BND       u[10,9]    1
ENDATA
